p cnf 21 10
e 1 0
a 2 0
e 3 4 0
a 5 6 0
e 7 0
a 8 0
e 9 10 0
a 11 12 13 0
e 14 15 16 0
a 17 18 19 0
e 20 0
a 21 0
13 -3 0
-7 12 0
4 2 14 3 0
18 15 19 -1 0
-18 -11 -12 -20 -2 0
-11 19 0
1 -13 20 -10 -14 0
-15 21 2 -18 -11 0
-3 19 9 -18 16 0
-8 -1 18 16 0
